(set-logic QF_S)
(declare-fun var0 () String)
(declare-fun var1 () String)
(declare-fun var2 () String)
(declare-fun var3 () String)
(declare-fun var4 () String)
(declare-fun var5 () String)
(declare-fun var6 () String)
(declare-fun var7 () String)
(declare-fun var8 () String)
(declare-fun var9 () String)
(declare-fun var10 () String)
(declare-fun var11 () String)
(declare-fun var12 () String)
(declare-fun var13 () String)
(declare-fun var14 () String)
(declare-fun var15 () String)
(declare-fun var16 () String)
(declare-fun var17 () String)
(declare-fun var18 () String)
(declare-fun var19 () String)
(declare-fun var20 () String)
(declare-fun var21 () String)
(declare-fun var22 () String)
(declare-fun var23 () String)
(declare-fun var24 () String)
(declare-fun var25 () String)
(declare-fun var26 () String)
(declare-fun var27 () String)
(declare-fun var28 () String)
(declare-fun var29 () String)
(declare-fun var30 () String)
(declare-fun var31 () String)
(declare-fun var32 () String)
(declare-fun var33 () String)
(declare-fun var34 () String)
(declare-fun var35 () String)
(declare-fun var36 () String)
(declare-fun var37 () String)
(declare-fun var38 () String)
(declare-fun var39 () String)
(declare-fun var40 () String)
(declare-fun var41 () String)
(declare-fun var42 () String)
(declare-fun var43 () String)
(declare-fun var44 () String)
(declare-fun var45 () String)
(declare-fun var46 () String)
(declare-fun var47 () String)
(declare-fun var48 () String)
(declare-fun var49 () String)
(declare-fun var50 () String)
(declare-fun var51 () String)
(declare-fun var52 () String)
(declare-fun var53 () String)
(declare-fun var54 () String)
(declare-fun var55 () String)
(declare-fun var56 () String)
(declare-fun var57 () String)
(declare-fun var58 () String)
(declare-fun var59 () String)
(declare-fun var60 () String)
(assert (= var0 (str.++ var1 var2)))
(assert (= var2 (str.++ var3 var4)))
(assert (= var4 (str.++ var5 var6)))
(assert (= var6 (str.++ var7 var8)))
(assert (= var8 (str.++ var9 var10)))
(assert (= var10 (str.++ var11 var12)))
(assert (= var12 (str.++ var13 var14)))
(assert (= var14 (str.++ var15 var16)))
(assert (= var16 (str.++ var17 var18)))
(assert (= var18 (str.++ var19 var20)))
(assert (= var20 (str.++ var21 var22)))
(assert (= var22 (str.++ var23 var24)))
(assert (= var24 (str.++ var25 var26)))
(assert (= var26 (str.++ var27 var28)))
(assert (= var28 (str.++ var29 var30)))
(assert (= var30 (str.++ var31 var32)))
(assert (= var32 (str.++ var33 var34)))
(assert (= var34 (str.++ var35 var36)))
(assert (= var36 (str.++ var37 var38)))
(assert (= var38 (str.++ var39 var40)))
(assert (= var40 (str.++ var41 var42)))
(assert (= var42 (str.++ var43 var44)))
(assert (= var44 (str.++ var45 var46)))
(assert (= var46 (str.++ var47 var48)))
(assert (= var48 (str.++ var49 var50)))
(assert (= var50 (str.++ var51 var52)))
(assert (= var52 (str.++ var53 var54)))
(assert (= var54 (str.++ var55 var56)))
(assert (= var56 (str.++ var57 var58)))
(assert (= var58 (str.++ var59 var60)))
(assert (= var0 "solution"))
(assert (= "A" (str.at var39 512)))
(assert (= "1" (str.at var21 599)))
(assert (= "L" (str.at var60 688)))
(assert (= "[" (str.at var43 555)))
(assert (= ":" (str.at var44 220)))
(assert (= "I" (str.at var20 980)))
(assert (= "A" (str.at var51 687)))
(assert (= "P" (str.at var35 454)))
(assert (= "!" (str.at var24 427)))
(assert (= "n" (str.at var57 24)))
(assert (= "e" (str.at var58 731)))
(assert (= "2" (str.at var60 200)))
(assert (= "r" (str.at var8 972)))
(assert (= "u" (str.at var0 159)))
(assert (= "/" (str.at var54 180)))
(assert (= "j" (str.at var10 52)))
(assert (= "O" (str.at var29 602)))
(assert (= "T" (str.at var16 870)))
(assert (= "L" (str.at var48 865)))
(assert (= "h" (str.at var41 310)))
(assert (= "v" (str.at var57 226)))
(assert (= "n" (str.at var49 667)))
(assert (= "%" (str.at var43 390)))
(assert (= "1" (str.at var45 78)))
(assert (= "<" (str.at var40 901)))
(assert (= "E" (str.at var48 88)))
(assert (= "`" (str.at var3 933)))
(assert (= "M" (str.at var12 276)))
(assert (= "<" (str.at var11 432)))
(assert (= "R" (str.at var55 19)))
(assert (= "r" (str.at var51 564)))
(assert (= "," (str.at var16 372)))
(assert (= "Q" (str.at var13 347)))
(assert (= "?" (str.at var55 152)))
(assert (= "7" (str.at var59 80)))
(assert (= "e" (str.at var24 528)))
(assert (= "p" (str.at var43 400)))
(assert (= "`" (str.at var13 671)))
(assert (= "o" (str.at var3 188)))
(assert (= "+" (str.at var33 600)))
(assert (= "'" (str.at var33 620)))
(assert (= "^" (str.at var29 369)))
(assert (= "'" (str.at var5 670)))
(assert (= "]" (str.at var41 415)))
(assert (= "J" (str.at var10 266)))
(assert (= "P" (str.at var29 138)))
(assert (= "@" (str.at var26 602)))
(assert (= "x" (str.at var50 757)))
(assert (= "}" (str.at var45 290)))
(assert (= "`" (str.at var6 688)))
(assert (= "r" (str.at var35 763)))
(assert (= """" (str.at var55 250)))
(assert (= "@" (str.at var22 732)))
(assert (= "_" (str.at var23 594)))
(assert (= "l" (str.at var45 970)))
(assert (= "=" (str.at var2 81)))
(assert (= "," (str.at var37 555)))
(assert (= "5" (str.at var58 236)))
(assert (= "|" (str.at var13 315)))
(assert (= "9" (str.at var9 227)))
(assert (= "p" (str.at var34 959)))
(assert (= "*" (str.at var14 804)))
(assert (= "B" (str.at var40 236)))
(assert (= "l" (str.at var0 432)))
(assert (= "j" (str.at var19 588)))
(assert (= "T" (str.at var37 994)))
(assert (= "s" (str.at var46 866)))
(assert (= "D" (str.at var30 605)))
(assert (= "i" (str.at var36 670)))
(assert (= "n" (str.at var40 266)))
(assert (= "E" (str.at var26 214)))
(assert (= "R" (str.at var58 422)))
(assert (= "l" (str.at var37 151)))
(assert (= "m" (str.at var16 16)))
(assert (= "U" (str.at var8 831)))
(assert (= "~" (str.at var44 364)))
(assert (= "/" (str.at var6 357)))
(assert (= "3" (str.at var17 593)))
(assert (= "d" (str.at var10 736)))
(assert (= "\\" (str.at var37 297)))
(assert (= "?" (str.at var3 581)))
(assert (= "a" (str.at var11 507)))
(assert (= "'" (str.at var40 25)))
(assert (= ":" (str.at var6 524)))
(assert (= """" (str.at var60 906)))
(assert (= "U" (str.at var58 238)))
(assert (= "!" (str.at var35 20)))
(assert (= "c" (str.at var13 690)))
(assert (= "R" (str.at var49 143)))
(assert (= "N" (str.at var47 785)))
(assert (= """" (str.at var23 631)))
(assert (= """" (str.at var58 298)))
(assert (= ";" (str.at var52 994)))
(assert (= "/" (str.at var15 761)))
(assert (= "." (str.at var2 207)))
(assert (= "(" (str.at var53 187)))
(assert (= "N" (str.at var51 335)))
(assert (= "N" (str.at var11 57)))
(assert (= "$" (str.at var33 125)))
(assert (= "c" (str.at var22 675)))
(assert (= "7" (str.at var40 431)))
(assert (= ">" (str.at var39 356)))
(assert (= "=" (str.at var5 987)))
(assert (= "V" (str.at var20 656)))
(assert (= "d" (str.at var5 15)))
(assert (= """" (str.at var55 170)))
(assert (= "n" (str.at var5 677)))
(assert (= "h" (str.at var23 328)))
(assert (= "[" (str.at var14 407)))
(assert (= ">" (str.at var59 606)))
(assert (= "7" (str.at var4 653)))
(assert (= "t" (str.at var46 108)))
(assert (= "G" (str.at var49 345)))
(assert (= "c" (str.at var51 906)))
(assert (= "i" (str.at var45 389)))
(assert (= "1" (str.at var34 599)))
(assert (= "5" (str.at var46 14)))
(assert (= "7" (str.at var14 191)))
(assert (= "&" (str.at var47 915)))
(assert (= "@" (str.at var54 112)))
(assert (= "Z" (str.at var14 288)))
(assert (= "s" (str.at var53 840)))
(assert (= "0" (str.at var51 440)))
(assert (= "," (str.at var14 597)))
(assert (= "." (str.at var60 597)))
(assert (= "!" (str.at var39 406)))
(assert (= "8" (str.at var26 513)))
(assert (= "G" (str.at var41 72)))
(assert (= "v" (str.at var12 666)))
(assert (= "L" (str.at var35 130)))
(assert (= ":" (str.at var8 94)))
(assert (= "&" (str.at var50 353)))
(assert (= "6" (str.at var24 201)))
(assert (= "t" (str.at var21 21)))
(assert (= "w" (str.at var30 417)))
(assert (= "(" (str.at var46 540)))
(assert (= "]" (str.at var4 239)))
(assert (= "6" (str.at var5 519)))
(assert (= "X" (str.at var56 662)))
(assert (= "i" (str.at var45 303)))
(assert (= "p" (str.at var50 472)))
(assert (= "Z" (str.at var22 205)))
(assert (= "t" (str.at var3 696)))
(assert (= "?" (str.at var35 122)))
(assert (= "f" (str.at var42 52)))
(assert (= "B" (str.at var1 613)))
(assert (= ")" (str.at var1 173)))
(assert (= "$" (str.at var60 687)))
(assert (= "7" (str.at var6 156)))
(assert (= "2" (str.at var44 730)))
(assert (= "_" (str.at var59 152)))
(assert (= "w" (str.at var52 229)))
(assert (= "0" (str.at var28 172)))
(assert (= "A" (str.at var10 277)))
(assert (= "<" (str.at var44 835)))
(assert (= "z" (str.at var51 538)))
(assert (= "|" (str.at var36 659)))
(assert (= """" (str.at var60 554)))
(assert (= """" (str.at var31 395)))
(assert (= "q" (str.at var42 189)))
(assert (= "f" (str.at var47 563)))
(assert (= "}" (str.at var15 857)))
(assert (= "`" (str.at var51 928)))
(assert (= ";" (str.at var13 529)))
(assert (= "E" (str.at var36 261)))
(assert (= "b" (str.at var41 558)))
(assert (= "@" (str.at var8 876)))
(assert (= "p" (str.at var25 574)))
(assert (= "m" (str.at var3 376)))
(assert (= "v" (str.at var12 157)))
(assert (= "c" (str.at var16 793)))
(assert (= "t" (str.at var33 26)))
(assert (= "Y" (str.at var25 208)))
(assert (= "%" (str.at var39 9)))
(assert (= "H" (str.at var49 826)))
(assert (= "`" (str.at var39 811)))
(assert (= "|" (str.at var26 712)))
(assert (= "X" (str.at var58 866)))
(assert (= "c" (str.at var1 722)))
(assert (= "'" (str.at var20 729)))
(assert (= ">" (str.at var16 930)))
(assert (= "z" (str.at var13 441)))
(assert (= "}" (str.at var39 559)))
(assert (= "u" (str.at var24 736)))
(assert (= "G" (str.at var47 69)))
(assert (= "~" (str.at var25 679)))
(assert (= "O" (str.at var33 542)))
(assert (= ">" (str.at var32 346)))
(assert (= "a" (str.at var42 778)))
(assert (= "U" (str.at var57 490)))
(assert (= "1" (str.at var14 262)))
(assert (= "B" (str.at var14 298)))
(assert (= "|" (str.at var55 539)))
(assert (= "`" (str.at var45 452)))
(assert (= "w" (str.at var52 238)))
(assert (= "G" (str.at var27 47)))
(assert (= "n" (str.at var14 494)))
(assert (= "M" (str.at var49 818)))
(assert (= "e" (str.at var27 413)))
(assert (= "|" (str.at var21 406)))
(assert (= "%" (str.at var57 637)))
(assert (= "S" (str.at var22 662)))
(assert (= "6" (str.at var0 956)))
(assert (= "|" (str.at var0 714)))
(assert (= ">" (str.at var8 73)))
(assert (= "U" (str.at var10 707)))
(assert (= "#" (str.at var22 6)))
(assert (= "n" (str.at var24 173)))
(assert (= "s" (str.at var38 554)))
(assert (= "[" (str.at var18 657)))
(assert (= "%" (str.at var42 844)))
(assert (= "t" (str.at var51 553)))
(assert (= "P" (str.at var4 666)))
(assert (= "E" (str.at var21 281)))
(assert (= "<" (str.at var14 399)))
(assert (= "i" (str.at var28 704)))
(assert (= "x" (str.at var46 852)))
(assert (= ">" (str.at var41 832)))
(assert (= "}" (str.at var57 2)))
(assert (= "*" (str.at var37 547)))
(assert (= "|" (str.at var48 755)))
(assert (= "h" (str.at var41 220)))
(assert (= "9" (str.at var16 484)))
(assert (= ")" (str.at var32 187)))
(assert (= "-" (str.at var1 24)))
(assert (= "6" (str.at var56 383)))
(assert (= "J" (str.at var26 307)))
(assert (= "|" (str.at var60 188)))
(assert (= "u" (str.at var29 280)))
(assert (= "+" (str.at var44 857)))
(assert (= "P" (str.at var30 783)))
(assert (= "?" (str.at var21 969)))
(assert (= "h" (str.at var51 730)))
(assert (= "j" (str.at var33 242)))
(assert (= "}" (str.at var4 377)))
(assert (= "3" (str.at var45 504)))
(assert (= "c" (str.at var29 194)))
(assert (= "p" (str.at var29 941)))
(assert (= "/" (str.at var23 75)))
(assert (= "m" (str.at var22 219)))
(assert (= "b" (str.at var27 214)))
(assert (= ")" (str.at var22 485)))
(assert (= "H" (str.at var33 103)))
(assert (= "I" (str.at var37 732)))
(assert (= "G" (str.at var0 632)))
(assert (= "?" (str.at var13 581)))
(assert (= "+" (str.at var46 328)))
(assert (= "8" (str.at var45 882)))
(assert (= "T" (str.at var30 928)))
(assert (= "(" (str.at var49 77)))
(assert (= "p" (str.at var0 996)))
(assert (= "2" (str.at var21 814)))
(assert (= "0" (str.at var23 676)))
(assert (= "G" (str.at var45 30)))
(assert (= "n" (str.at var36 692)))
(assert (= "l" (str.at var7 696)))
(assert (= "/" (str.at var7 14)))
(assert (= "w" (str.at var28 98)))
(assert (= "D" (str.at var59 765)))
(assert (= "." (str.at var6 977)))
(assert (= "|" (str.at var42 180)))
(assert (= "x" (str.at var18 494)))
(assert (= "a" (str.at var43 29)))
(assert (= ";" (str.at var24 657)))
(assert (= "B" (str.at var11 554)))
(assert (= "X" (str.at var17 940)))
(assert (= "7" (str.at var14 701)))
(assert (= "?" (str.at var38 371)))
(assert (= "Z" (str.at var16 521)))
(assert (= "v" (str.at var7 38)))
(assert (= "P" (str.at var49 858)))
(assert (= "{" (str.at var3 439)))
(assert (= "R" (str.at var16 441)))
(assert (= "#" (str.at var32 477)))
(assert (= "]" (str.at var42 168)))
(assert (= "]" (str.at var26 550)))
(assert (= """" (str.at var34 347)))
(assert (= "M" (str.at var30 461)))
(assert (= "~" (str.at var5 841)))
(assert (= "i" (str.at var22 241)))
(assert (= "(" (str.at var59 442)))
(assert (= "l" (str.at var54 959)))
(assert (= "U" (str.at var51 998)))
(assert (= "S" (str.at var12 193)))
(assert (= "<" (str.at var57 232)))
(assert (= "Y" (str.at var2 92)))
(assert (= "7" (str.at var42 892)))
(assert (= "6" (str.at var51 481)))
(assert (= "i" (str.at var27 341)))
(assert (= "V" (str.at var55 760)))
(assert (= "0" (str.at var55 189)))
(assert (= ">" (str.at var2 442)))
(assert (= ";" (str.at var33 729)))
(assert (= "l" (str.at var35 499)))
(assert (= "/" (str.at var30 522)))
(assert (= "*" (str.at var42 497)))
(assert (= "+" (str.at var6 406)))
(assert (= "k" (str.at var27 13)))
(assert (= "9" (str.at var53 608)))
(assert (= "#" (str.at var25 943)))
(assert (= "B" (str.at var59 720)))
(assert (= "P" (str.at var49 572)))
(assert (= "_" (str.at var1 159)))
(assert (= "Q" (str.at var57 539)))
(assert (= "I" (str.at var33 502)))
(assert (= "w" (str.at var36 754)))
(assert (= "g" (str.at var53 799)))
(assert (= "C" (str.at var6 730)))
(assert (= ">" (str.at var7 289)))
(assert (= "e" (str.at var60 806)))
(assert (= "u" (str.at var39 411)))
(assert (= "K" (str.at var2 91)))
(assert (= "j" (str.at var38 606)))
(assert (= "E" (str.at var13 715)))
(assert (= "h" (str.at var52 194)))
(assert (= "i" (str.at var4 438)))
(assert (= "|" (str.at var19 96)))
(assert (= "x" (str.at var39 129)))
(assert (= "c" (str.at var23 689)))
(assert (= "V" (str.at var49 738)))
(assert (= "U" (str.at var54 124)))
(assert (= "1" (str.at var60 450)))
(assert (= "=" (str.at var20 299)))
(assert (= "G" (str.at var5 61)))
(assert (= "!" (str.at var26 26)))
(assert (= "m" (str.at var14 753)))
(assert (= "#" (str.at var55 509)))
(assert (= "f" (str.at var46 227)))
(assert (= "v" (str.at var40 391)))
(assert (= "!" (str.at var8 304)))
(assert (= "D" (str.at var23 197)))
(assert (= "R" (str.at var14 281)))
(assert (= "^" (str.at var59 686)))
(assert (= "&" (str.at var33 292)))
(assert (= "?" (str.at var38 999)))
(assert (= "x" (str.at var30 891)))
(assert (= "+" (str.at var47 355)))
(assert (= "Y" (str.at var31 96)))
(assert (= "0" (str.at var9 816)))
(assert (= "O" (str.at var46 702)))
(assert (= "1" (str.at var43 874)))
(assert (= "(" (str.at var0 400)))
(assert (= "h" (str.at var6 848)))
(assert (= "1" (str.at var30 7)))
(assert (= "X" (str.at var8 295)))
(assert (= "[" (str.at var23 80)))
(assert (= "^" (str.at var52 852)))
(assert (= "Y" (str.at var40 361)))
(assert (= "8" (str.at var53 686)))
(assert (= "}" (str.at var21 534)))
(assert (= "a" (str.at var54 894)))
(assert (= "u" (str.at var40 463)))
(assert (= "a" (str.at var60 281)))
(assert (= "Y" (str.at var32 985)))
(assert (= "`" (str.at var53 52)))
(assert (= "?" (str.at var18 319)))
(assert (= "Y" (str.at var35 161)))
(assert (= "f" (str.at var16 315)))
(assert (= "z" (str.at var51 419)))
(assert (= "j" (str.at var26 106)))
(assert (= "t" (str.at var37 573)))
(assert (= "8" (str.at var25 629)))
(assert (= "M" (str.at var11 826)))
(assert (= "`" (str.at var26 700)))
(assert (= "5" (str.at var37 909)))
(assert (= "d" (str.at var37 676)))
(assert (= "+" (str.at var26 674)))
(assert (= "=" (str.at var32 280)))
(assert (= "." (str.at var60 827)))
(assert (= "+" (str.at var5 550)))
(assert (= "0" (str.at var37 843)))
(assert (= "U" (str.at var1 310)))
(assert (= "c" (str.at var30 938)))
(assert (= "|" (str.at var46 723)))
(assert (= "w" (str.at var52 479)))
(assert (= "{" (str.at var37 330)))
(assert (= "J" (str.at var12 921)))
(assert (= "#" (str.at var22 969)))
(assert (= "7" (str.at var4 441)))
(assert (= "p" (str.at var53 181)))
(assert (= "8" (str.at var38 635)))
(assert (= "x" (str.at var16 914)))
(assert (= "f" (str.at var22 27)))
(assert (= "6" (str.at var6 808)))
(assert (= "b" (str.at var56 496)))
(assert (= "l" (str.at var13 791)))
(assert (= "B" (str.at var17 176)))
(assert (= "t" (str.at var56 211)))
(assert (= "s" (str.at var44 519)))
(assert (= "3" (str.at var32 719)))
(assert (= "(" (str.at var8 986)))
(assert (= ";" (str.at var13 297)))
(assert (= "." (str.at var49 153)))
(assert (= "d" (str.at var5 839)))
(assert (= "0" (str.at var20 184)))
(assert (= "9" (str.at var19 697)))
(assert (= "\\" (str.at var23 461)))
(assert (= "B" (str.at var34 604)))
(assert (= "E" (str.at var31 81)))
(assert (= "!" (str.at var57 765)))
(assert (= "r" (str.at var45 531)))
(assert (= "U" (str.at var16 966)))
(assert (= "k" (str.at var41 4)))
(assert (= "'" (str.at var24 431)))
(assert (= "u" (str.at var4 904)))
(assert (= "L" (str.at var51 617)))
(assert (= "8" (str.at var60 369)))
(assert (= "W" (str.at var43 59)))
(assert (= "-" (str.at var58 106)))
(assert (= "2" (str.at var60 351)))
(assert (= "D" (str.at var57 314)))
(assert (= "8" (str.at var2 454)))
(assert (= "m" (str.at var5 558)))
(assert (= "g" (str.at var54 81)))
(assert (= ";" (str.at var26 257)))
(assert (= "C" (str.at var2 397)))
(assert (= "," (str.at var22 955)))
(assert (= "b" (str.at var50 471)))
(assert (= "2" (str.at var34 498)))
(assert (= "3" (str.at var58 920)))
(assert (= "+" (str.at var13 291)))
(assert (= "x" (str.at var17 255)))
(assert (= "w" (str.at var42 212)))
(assert (= "O" (str.at var48 896)))
(assert (= "," (str.at var25 965)))
(assert (= ":" (str.at var10 407)))
(assert (= "I" (str.at var60 501)))
(assert (= "v" (str.at var21 867)))
(assert (= "U" (str.at var20 715)))
(assert (= "U" (str.at var2 1000)))
(assert (= "i" (str.at var28 296)))
(assert (= "0" (str.at var5 691)))
(assert (= "L" (str.at var54 637)))
(assert (= "A" (str.at var22 801)))
(assert (= "X" (str.at var38 104)))
(assert (= "T" (str.at var43 84)))
(assert (= "b" (str.at var53 259)))
(assert (= "e" (str.at var46 927)))
(assert (= ")" (str.at var26 206)))
(assert (= "u" (str.at var8 361)))
(assert (= "^" (str.at var18 772)))
(assert (= "B" (str.at var31 833)))
(assert (= "~" (str.at var14 748)))
(assert (= "(" (str.at var51 291)))
(assert (= "#" (str.at var13 424)))
(assert (= "]" (str.at var49 770)))
(assert (= "2" (str.at var34 733)))
(assert (= "B" (str.at var39 638)))
(assert (= "Q" (str.at var22 928)))
(assert (= "c" (str.at var39 637)))
(assert (= "~" (str.at var14 938)))
(assert (= "}" (str.at var30 88)))
(assert (= "T" (str.at var55 470)))
(assert (= "O" (str.at var54 797)))
(assert (= "W" (str.at var16 93)))
(assert (= "U" (str.at var47 991)))
(assert (= "." (str.at var37 533)))
(assert (= "f" (str.at var15 850)))
(assert (= "V" (str.at var49 480)))
(assert (= "H" (str.at var37 702)))
(assert (= "#" (str.at var0 584)))
(assert (= "Y" (str.at var13 619)))
(assert (= "&" (str.at var38 405)))
(assert (= "/" (str.at var46 13)))
(assert (= "K" (str.at var22 896)))
(assert (= "1" (str.at var7 593)))
(assert (= "G" (str.at var14 548)))
(assert (= "Q" (str.at var27 56)))
(assert (= "q" (str.at var60 645)))
(assert (= "7" (str.at var47 986)))
(assert (= "M" (str.at var21 309)))
(assert (= "6" (str.at var38 403)))
(assert (= "P" (str.at var14 346)))
(assert (= "`" (str.at var44 125)))
(assert (= "D" (str.at var29 35)))
(assert (= "K" (str.at var39 509)))
(assert (= "<" (str.at var33 22)))
(assert (= "[" (str.at var26 468)))
(assert (= "]" (str.at var11 338)))
(assert (= "_" (str.at var20 997)))
(assert (= "]" (str.at var14 1)))
(assert (= "0" (str.at var16 202)))
(assert (= "w" (str.at var42 240)))
(assert (= "2" (str.at var30 61)))
(assert (= "a" (str.at var49 735)))
(assert (= "s" (str.at var9 438)))
(assert (= "C" (str.at var6 889)))
(assert (= "1" (str.at var26 878)))
(assert (= "d" (str.at var11 194)))
(assert (= "3" (str.at var29 210)))
(assert (= ":" (str.at var36 966)))
(assert (= "g" (str.at var6 2)))
(assert (= "Q" (str.at var26 127)))
(assert (= "[" (str.at var49 562)))
(assert (= """" (str.at var17 13)))
(assert (= "g" (str.at var43 481)))
(assert (= "P" (str.at var28 786)))
(assert (= "Y" (str.at var33 637)))
(assert (= "r" (str.at var7 447)))
(assert (= "b" (str.at var53 285)))
(assert (= "j" (str.at var41 971)))
(assert (= "U" (str.at var59 348)))
(assert (= "R" (str.at var28 18)))
(assert (= "O" (str.at var54 605)))
(assert (= "x" (str.at var25 384)))
(assert (= "k" (str.at var31 690)))
(assert (= "Q" (str.at var30 564)))
(assert (= "^" (str.at var8 563)))
(assert (= ">" (str.at var3 51)))
(assert (= "o" (str.at var58 442)))
(assert (= "s" (str.at var55 843)))
(assert (= "H" (str.at var24 455)))
(assert (= "&" (str.at var23 415)))
(assert (= "g" (str.at var56 325)))
(assert (= "7" (str.at var15 897)))
(assert (= "u" (str.at var1 823)))
(assert (= "o" (str.at var38 953)))
(assert (= "G" (str.at var6 982)))
(assert (= "R" (str.at var7 879)))
(assert (= "{" (str.at var9 668)))
(assert (= "n" (str.at var9 653)))
(assert (= "C" (str.at var1 703)))
(assert (= "P" (str.at var46 699)))
(assert (= "!" (str.at var8 180)))
(assert (= "{" (str.at var1 123)))
(assert (= "$" (str.at var14 540)))
(assert (= "&" (str.at var59 470)))
(assert (= "M" (str.at var59 166)))
(assert (= "&" (str.at var37 773)))
(assert (= "I" (str.at var2 263)))
(assert (= "7" (str.at var4 794)))
(assert (= "Z" (str.at var53 921)))
(assert (= "[" (str.at var45 154)))
(assert (= "d" (str.at var7 693)))
(assert (= "]" (str.at var45 226)))
(assert (= "'" (str.at var58 204)))
(assert (= "i" (str.at var56 817)))
(assert (= "5" (str.at var14 564)))
(assert (= "r" (str.at var27 401)))
(assert (= "%" (str.at var14 890)))
(assert (= "E" (str.at var34 420)))
(assert (= "B" (str.at var54 46)))
(assert (= "S" (str.at var52 951)))
(assert (= "V" (str.at var43 245)))
(assert (= "(" (str.at var32 790)))
(assert (= "a" (str.at var2 380)))
(assert (= "I" (str.at var37 985)))
(assert (= "I" (str.at var45 472)))
(assert (= "~" (str.at var3 770)))
(assert (= "#" (str.at var28 537)))
(assert (= "b" (str.at var29 530)))
(assert (= "Q" (str.at var23 73)))
(assert (= "B" (str.at var48 440)))
(assert (= "^" (str.at var9 734)))
(assert (= "," (str.at var56 397)))
(assert (= "+" (str.at var5 637)))
(assert (= "I" (str.at var46 440)))
(assert (= "5" (str.at var46 853)))
(assert (= "+" (str.at var59 421)))
(assert (= "F" (str.at var30 218)))
(assert (= "_" (str.at var2 147)))
(assert (= """" (str.at var28 479)))
(assert (= "f" (str.at var58 130)))
(assert (= "C" (str.at var4 38)))
(assert (= "?" (str.at var28 137)))
(assert (= "J" (str.at var44 73)))
(assert (= "[" (str.at var53 731)))
(assert (= "!" (str.at var37 396)))
(assert (= "U" (str.at var48 456)))
(assert (= ">" (str.at var39 715)))
(assert (= "z" (str.at var26 357)))
(assert (= "T" (str.at var22 606)))
(assert (= "w" (str.at var0 870)))
(assert (= "7" (str.at var44 214)))
(assert (= "z" (str.at var35 800)))
(assert (= "{" (str.at var59 738)))
(assert (= "6" (str.at var27 178)))
(assert (= "e" (str.at var30 991)))
(assert (= "K" (str.at var42 723)))
(assert (= "X" (str.at var27 464)))
(assert (= "f" (str.at var2 802)))
(assert (= "/" (str.at var25 986)))
(assert (= ")" (str.at var42 355)))
(assert (= "^" (str.at var4 992)))
(assert (= "n" (str.at var37 220)))
(assert (= "L" (str.at var28 541)))
(assert (= ">" (str.at var20 900)))
(assert (= "!" (str.at var25 401)))
(assert (= "k" (str.at var12 715)))
(assert (= "{" (str.at var59 358)))
(assert (= "`" (str.at var48 797)))
(assert (= "b" (str.at var0 295)))
(assert (= "X" (str.at var1 194)))
(assert (= "q" (str.at var38 620)))
(assert (= "b" (str.at var28 797)))
(assert (= "&" (str.at var59 82)))
(assert (= "[" (str.at var51 980)))
(assert (= "3" (str.at var7 288)))
(assert (= "?" (str.at var30 60)))
(assert (= "`" (str.at var6 537)))
(assert (= "4" (str.at var26 732)))
(assert (= "P" (str.at var14 693)))
(assert (= "f" (str.at var22 711)))
(assert (= "R" (str.at var57 458)))
(assert (= "4" (str.at var36 968)))
(assert (= "}" (str.at var59 523)))
(assert (= "C" (str.at var60 612)))
(assert (= "#" (str.at var54 834)))
(assert (= "$" (str.at var28 46)))
(assert (= "v" (str.at var35 553)))
(assert (= "6" (str.at var59 307)))
(assert (= "a" (str.at var11 972)))
(assert (= ";" (str.at var11 169)))
(assert (= "w" (str.at var45 719)))
(assert (= "z" (str.at var55 581)))
(assert (= ";" (str.at var30 544)))
(assert (= ":" (str.at var31 962)))
(assert (= "V" (str.at var38 611)))
(assert (= "o" (str.at var12 972)))
(assert (= "L" (str.at var58 255)))
(assert (= "'" (str.at var26 338)))
(assert (= "|" (str.at var10 663)))
(assert (= ">" (str.at var13 427)))
(assert (= "U" (str.at var16 696)))
(assert (= "k" (str.at var51 995)))
(assert (= "G" (str.at var29 59)))
(assert (= "~" (str.at var3 380)))
(assert (= "'" (str.at var57 934)))
(assert (= "F" (str.at var24 998)))
(assert (= "V" (str.at var26 832)))
(assert (= "H" (str.at var37 919)))
(assert (= "2" (str.at var38 227)))
(assert (= """" (str.at var26 164)))
(assert (= "Z" (str.at var48 640)))
(assert (= "u" (str.at var46 911)))
(assert (= "~" (str.at var4 69)))
(assert (= "D" (str.at var56 941)))
(assert (= "V" (str.at var53 675)))
(assert (= "'" (str.at var49 853)))
(assert (= "t" (str.at var4 44)))
(assert (= "R" (str.at var27 591)))
(check-sat)